8532838517575323704508,11,1,2,03,6,1,2,013,6,1,2,013,15,1,2,08,8,1,2,010,6,1,2,09,4,1,2,02,12,1,2,06,13,1,2,01,12,1,2,08,8,1,2,06,9,1,2,03,5,1,2,014,2,1,2,04,14,1,2,03,4,1,2,03,9,1,2,01,13,1,2,012,9,1,2,05,12,1,2,06,13,1,2,05,12,1,2,02,2,1,2,010,10,1,2,01,12,1,2,015,10,1,2,015,15,1,2,015,3,1,2,08,14,1,2,08,8,1,2,015,14,1,2,05,7,1,2,08,9,1,2,05,15,1,2,08,5,1,2,013,4,1,2,03,4,1,2,03,9,1,2,02,5,1,2,015,10,1,2,013,10,1,2,04,2,1,2,012,5,1,2,013,2,1,2,013,9,1,2,04,4,1,2,04,6,1,2,015,10,1,2,013,15,1,2,03,9,1,2,0